20
1 0 46
2 0 61
2 1 48
3 0 18
3 1 59
3 2 54
4 0 71
4 1 49
4 2 60
4 3 78
5 0 70
5 1 118
5 2 48
5 3 34
5 4 53
6 0 38
6 1 5
6 2 56
6 3 59
6 4 70
6 5 34
7 0 38
7 1 111
7 2 11
7 3 63
7 4 53
7 5 101
7 6 35
8 0 102
8 1 80
8 2 38
8 3 115
8 4 2
8 5 15
8 6 51
8 7 38
9 0 97
9 1 7
9 2 50
9 3 1
9 4 79
9 5 7
9 6 58
9 7 17
9 8 53
10 0 48
10 1 87
10 2 10
10 3 106
10 4 90
10 5 41
10 6 50
10 7 8
10 8 75
10 9 16
11 0 49
11 1 93
11 2 1
11 3 95
11 4 115
11 5 108
11 6 33
11 7 77
11 8 73
11 9 1
11 10 35
12 0 91
12 1 47
12 2 94
12 3 27
12 4 74
12 5 56
12 6 4
12 7 65
12 8 89
12 9 92
12 10 44
12 11 21
13 0 2
13 1 20
13 2 100
13 3 106
13 4 63
13 5 106
13 6 11
13 7 32
13 8 25
13 9 24
13 10 100
13 11 106
13 12 77
14 0 68
14 1 79
14 2 63
14 3 87
14 4 90
14 5 60
14 6 80
14 7 13
14 8 77
14 9 44
14 10 47
14 11 73
14 12 96
14 13 3
15 0 71
15 1 117
15 2 107
15 3 95
15 4 6
15 5 89
15 6 74
15 7 82
15 8 96
15 9 8
15 10 82
15 11 54
15 12 106
15 13 84
15 14 11
16 0 44
16 1 32
16 2 68
16 3 75
16 4 92
16 5 86
16 6 73
16 7 45
16 8 81
16 9 95
16 10 97
16 11 94
16 12 2
16 13 28
16 14 69
16 15 41
17 0 32
17 1 55
17 2 109
17 3 10
17 4 71
17 5 3
17 6 8
17 7 52
17 8 88
17 9 4
17 10 70
17 11 17
17 12 28
17 13 3
17 14 105
17 15 30
17 16 88
18 0 101
18 1 98
18 2 41
18 3 68
18 4 52
18 5 4
18 6 71
18 7 81
18 8 69
18 9 88
18 10 42
18 11 78
18 12 4
18 13 40
18 14 25
18 15 71
18 16 73
18 17 35
19 0 98
19 1 97
19 2 13
19 3 93
19 4 116
19 5 83
19 6 23
19 7 23
19 8 71
19 9 48
19 10 70
19 11 72
19 12 98
19 13 115
19 14 21
19 15 74
19 16 9
19 17 2
19 18 110
